c *********************************
c * Circuit generated by BenCGen
c *
c * Parity_68
c *
c * Ports with 1 gate(s): 1
c * Ports with 2 gate(s): 68
c * Total gates: 69
c *********************************
p cnf 137 273
1 71 0
-1 -71 0
1 -70 0
71 -70 0
-1 -71 70 0
1 2 -72 0
-1 2 72 0
1 -2 72 0
-1 -2 -72 0
3 4 -73 0
-3 4 73 0
3 -4 73 0
-3 -4 -73 0
5 6 -74 0
-5 6 74 0
5 -6 74 0
-5 -6 -74 0
7 8 -75 0
-7 8 75 0
7 -8 75 0
-7 -8 -75 0
9 10 -76 0
-9 10 76 0
9 -10 76 0
-9 -10 -76 0
11 12 -77 0
-11 12 77 0
11 -12 77 0
-11 -12 -77 0
13 14 -78 0
-13 14 78 0
13 -14 78 0
-13 -14 -78 0
15 16 -79 0
-15 16 79 0
15 -16 79 0
-15 -16 -79 0
17 18 -80 0
-17 18 80 0
17 -18 80 0
-17 -18 -80 0
19 20 -81 0
-19 20 81 0
19 -20 81 0
-19 -20 -81 0
21 22 -82 0
-21 22 82 0
21 -22 82 0
-21 -22 -82 0
23 24 -83 0
-23 24 83 0
23 -24 83 0
-23 -24 -83 0
25 26 -84 0
-25 26 84 0
25 -26 84 0
-25 -26 -84 0
27 28 -85 0
-27 28 85 0
27 -28 85 0
-27 -28 -85 0
29 30 -86 0
-29 30 86 0
29 -30 86 0
-29 -30 -86 0
31 32 -87 0
-31 32 87 0
31 -32 87 0
-31 -32 -87 0
33 34 -88 0
-33 34 88 0
33 -34 88 0
-33 -34 -88 0
35 36 -89 0
-35 36 89 0
35 -36 89 0
-35 -36 -89 0
37 38 -90 0
-37 38 90 0
37 -38 90 0
-37 -38 -90 0
39 40 -91 0
-39 40 91 0
39 -40 91 0
-39 -40 -91 0
41 42 -92 0
-41 42 92 0
41 -42 92 0
-41 -42 -92 0
43 44 -93 0
-43 44 93 0
43 -44 93 0
-43 -44 -93 0
45 46 -94 0
-45 46 94 0
45 -46 94 0
-45 -46 -94 0
47 48 -95 0
-47 48 95 0
47 -48 95 0
-47 -48 -95 0
49 50 -96 0
-49 50 96 0
49 -50 96 0
-49 -50 -96 0
51 52 -97 0
-51 52 97 0
51 -52 97 0
-51 -52 -97 0
53 54 -98 0
-53 54 98 0
53 -54 98 0
-53 -54 -98 0
55 56 -99 0
-55 56 99 0
55 -56 99 0
-55 -56 -99 0
57 58 -100 0
-57 58 100 0
57 -58 100 0
-57 -58 -100 0
59 60 -101 0
-59 60 101 0
59 -60 101 0
-59 -60 -101 0
61 62 -102 0
-61 62 102 0
61 -62 102 0
-61 -62 -102 0
63 64 -103 0
-63 64 103 0
63 -64 103 0
-63 -64 -103 0
65 66 -104 0
-65 66 104 0
65 -66 104 0
-65 -66 -104 0
67 68 -105 0
-67 68 105 0
67 -68 105 0
-67 -68 -105 0
72 73 -106 0
-72 73 106 0
72 -73 106 0
-72 -73 -106 0
74 75 -107 0
-74 75 107 0
74 -75 107 0
-74 -75 -107 0
76 77 -108 0
-76 77 108 0
76 -77 108 0
-76 -77 -108 0
78 79 -109 0
-78 79 109 0
78 -79 109 0
-78 -79 -109 0
80 81 -110 0
-80 81 110 0
80 -81 110 0
-80 -81 -110 0
82 83 -111 0
-82 83 111 0
82 -83 111 0
-82 -83 -111 0
84 85 -112 0
-84 85 112 0
84 -85 112 0
-84 -85 -112 0
86 87 -113 0
-86 87 113 0
86 -87 113 0
-86 -87 -113 0
88 89 -114 0
-88 89 114 0
88 -89 114 0
-88 -89 -114 0
90 91 -115 0
-90 91 115 0
90 -91 115 0
-90 -91 -115 0
92 93 -116 0
-92 93 116 0
92 -93 116 0
-92 -93 -116 0
94 95 -117 0
-94 95 117 0
94 -95 117 0
-94 -95 -117 0
96 97 -118 0
-96 97 118 0
96 -97 118 0
-96 -97 -118 0
98 99 -119 0
-98 99 119 0
98 -99 119 0
-98 -99 -119 0
100 101 -120 0
-100 101 120 0
100 -101 120 0
-100 -101 -120 0
102 103 -121 0
-102 103 121 0
102 -103 121 0
-102 -103 -121 0
104 105 -122 0
-104 105 122 0
104 -105 122 0
-104 -105 -122 0
106 107 -123 0
-106 107 123 0
106 -107 123 0
-106 -107 -123 0
108 109 -124 0
-108 109 124 0
108 -109 124 0
-108 -109 -124 0
110 111 -125 0
-110 111 125 0
110 -111 125 0
-110 -111 -125 0
112 113 -126 0
-112 113 126 0
112 -113 126 0
-112 -113 -126 0
114 115 -127 0
-114 115 127 0
114 -115 127 0
-114 -115 -127 0
116 117 -128 0
-116 117 128 0
116 -117 128 0
-116 -117 -128 0
118 119 -129 0
-118 119 129 0
118 -119 129 0
-118 -119 -129 0
120 121 -130 0
-120 121 130 0
120 -121 130 0
-120 -121 -130 0
123 124 -131 0
-123 124 131 0
123 -124 131 0
-123 -124 -131 0
125 126 -132 0
-125 126 132 0
125 -126 132 0
-125 -126 -132 0
127 128 -133 0
-127 128 133 0
127 -128 133 0
-127 -128 -133 0
129 130 -134 0
-129 130 134 0
129 -130 134 0
-129 -130 -134 0
131 132 -135 0
-131 132 135 0
131 -132 135 0
-131 -132 -135 0
133 134 -136 0
-133 134 136 0
133 -134 136 0
-133 -134 -136 0
135 136 -137 0
-135 136 137 0
135 -136 137 0
-135 -136 -137 0
137 122 -69 0
-137 122 69 0
137 -122 69 0
-137 -122 -69 0
